<instance format="XCSP3" type="CSP">
  <variables>
    <var id="X0"> 1..2 </var>
    <var id="Y0"> 1..2 </var>
    <var id="X1"> 1..2 </var>
    <var id="Y1"> 1..2 </var>
    <var id="X2"> 1..2 </var>
    <var id="Y2"> 1..3 </var>
    <var id="X3"> 1..2 </var>
    <var id="Y3"> 1..2 </var>
    <var id="X4"> 1..2 </var>
    <var id="Y4"> 1..2 </var>
    <var id="X5"> 1..2 </var>
    <var id="Y5"> 1..2 </var>
  </variables>
  <constraints>
    <block class="Variable comparison Constant operator Variable">
      <intension> eq(X0,div(2,Y0)) </intension>
      <intension> ne(X1,mod(77,Y1)) </intension>
      <intension> lt(X2,dist(1,Y2)) </intension>
      <intension> le(X3,add(1,Y3)) </intension>
      <intension> gt(X4,sub(1,Y4)) </intension>
      <intension> ge(X5,mul(2,Y5)) </intension>
    </block>
  </constraints>
</instance>
